c description: Graph pigeonhole principle formula on fast_gnp_random_graph(10,25,0.9)
c generator: CNFgen (0.9.0)
c copyright: (C) 2012-2020 Massimo Lauria <massimo.lauria@uniroma1.it>
c url: https://massimolauria.net/cnfgen
c
p cnf 227 938
1 2 3 4 5 6 7 8 9 10 11 12 13 14 15 16 17 18 19 20 21 22 0
23 24 25 26 27 28 29 30 31 32 33 34 35 36 37 38 39 40 41 42 43 44 45 46 47 0
48 49 50 51 52 53 54 55 56 57 58 59 60 61 62 63 64 65 66 67 68 69 0
70 71 72 73 74 75 76 77 78 79 80 81 82 83 84 85 86 87 88 89 90 0
91 92 93 94 95 96 97 98 99 100 101 102 103 104 105 106 107 108 109 110 111 112 113 0
114 115 116 117 118 119 120 121 122 123 124 125 126 127 128 129 130 131 132 133 134 135 136 0
137 138 139 140 141 142 143 144 145 146 147 148 149 150 151 152 153 154 155 156 157 158 0
159 160 161 162 163 164 165 166 167 168 169 170 171 172 173 174 175 176 177 178 179 180 181 0
182 183 184 185 186 187 188 189 190 191 192 193 194 195 196 197 198 199 200 201 202 203 204 205 0
206 207 208 209 210 211 212 213 214 215 216 217 218 219 220 221 222 223 224 225 226 227 0
-1 -23 0
-1 -70 0
-1 -91 0
-1 -114 0
-1 -137 0
-1 -159 0
-1 -182 0
-1 -206 0
-23 -70 0
-23 -91 0
-23 -114 0
-23 -137 0
-23 -159 0
-23 -182 0
-23 -206 0
-70 -91 0
-70 -114 0
-70 -137 0
-70 -159 0
-70 -182 0
-70 -206 0
-91 -114 0
-91 -137 0
-91 -159 0
-91 -182 0
-91 -206 0
-114 -137 0
-114 -159 0
-114 -182 0
-114 -206 0
-137 -159 0
-137 -182 0
-137 -206 0
-159 -182 0
-159 -206 0
-182 -206 0
-2 -24 0
-2 -48 0
-2 -71 0
-2 -92 0
-2 -138 0
-2 -160 0
-2 -183 0
-2 -207 0
-24 -48 0
-24 -71 0
-24 -92 0
-24 -138 0
-24 -160 0
-24 -183 0
-24 -207 0
-48 -71 0
-48 -92 0
-48 -138 0
-48 -160 0
-48 -183 0
-48 -207 0
-71 -92 0
-71 -138 0
-71 -160 0
-71 -183 0
-71 -207 0
-92 -138 0
-92 -160 0
-92 -183 0
-92 -207 0
-138 -160 0
-138 -183 0
-138 -207 0
-160 -183 0
-160 -207 0
-183 -207 0
-3 -25 0
-3 -49 0
-3 -72 0
-3 -93 0
-3 -115 0
-3 -139 0
-3 -161 0
-3 -184 0
-3 -208 0
-25 -49 0
-25 -72 0
-25 -93 0
-25 -115 0
-25 -139 0
-25 -161 0
-25 -184 0
-25 -208 0
-49 -72 0
-49 -93 0
-49 -115 0
-49 -139 0
-49 -161 0
-49 -184 0
-49 -208 0
-72 -93 0
-72 -115 0
-72 -139 0
-72 -161 0
-72 -184 0
-72 -208 0
-93 -115 0
-93 -139 0
-93 -161 0
-93 -184 0
-93 -208 0
-115 -139 0
-115 -161 0
-115 -184 0
-115 -208 0
-139 -161 0
-139 -184 0
-139 -208 0
-161 -184 0
-161 -208 0
-184 -208 0
-26 -50 0
-26 -73 0
-26 -116 0
-26 -140 0
-26 -162 0
-26 -185 0
-26 -209 0
-50 -73 0
-50 -116 0
-50 -140 0
-50 -162 0
-50 -185 0
-50 -209 0
-73 -116 0
-73 -140 0
-73 -162 0
-73 -185 0
-73 -209 0
-116 -140 0
-116 -162 0
-116 -185 0
-116 -209 0
-140 -162 0
-140 -185 0
-140 -209 0
-162 -185 0
-162 -209 0
-185 -209 0
-4 -27 0
-4 -51 0
-4 -74 0
-4 -94 0
-4 -117 0
-4 -141 0
-4 -163 0
-4 -186 0
-4 -210 0
-27 -51 0
-27 -74 0
-27 -94 0
-27 -117 0
-27 -141 0
-27 -163 0
-27 -186 0
-27 -210 0
-51 -74 0
-51 -94 0
-51 -117 0
-51 -141 0
-51 -163 0
-51 -186 0
-51 -210 0
-74 -94 0
-74 -117 0
-74 -141 0
-74 -163 0
-74 -186 0
-74 -210 0
-94 -117 0
-94 -141 0
-94 -163 0
-94 -186 0
-94 -210 0
-117 -141 0
-117 -163 0
-117 -186 0
-117 -210 0
-141 -163 0
-141 -186 0
-141 -210 0
-163 -186 0
-163 -210 0
-186 -210 0
-5 -28 0
-5 -52 0
-5 -75 0
-5 -95 0
-5 -118 0
-5 -142 0
-5 -164 0
-5 -187 0
-5 -211 0
-28 -52 0
-28 -75 0
-28 -95 0
-28 -118 0
-28 -142 0
-28 -164 0
-28 -187 0
-28 -211 0
-52 -75 0
-52 -95 0
-52 -118 0
-52 -142 0
-52 -164 0
-52 -187 0
-52 -211 0
-75 -95 0
-75 -118 0
-75 -142 0
-75 -164 0
-75 -187 0
-75 -211 0
-95 -118 0
-95 -142 0
-95 -164 0
-95 -187 0
-95 -211 0
-118 -142 0
-118 -164 0
-118 -187 0
-118 -211 0
-142 -164 0
-142 -187 0
-142 -211 0
-164 -187 0
-164 -211 0
-187 -211 0
-6 -29 0
-6 -53 0
-6 -96 0
-6 -119 0
-6 -143 0
-6 -165 0
-6 -188 0
-6 -212 0
-29 -53 0
-29 -96 0
-29 -119 0
-29 -143 0
-29 -165 0
-29 -188 0
-29 -212 0
-53 -96 0
-53 -119 0
-53 -143 0
-53 -165 0
-53 -188 0
-53 -212 0
-96 -119 0
-96 -143 0
-96 -165 0
-96 -188 0
-96 -212 0
-119 -143 0
-119 -165 0
-119 -188 0
-119 -212 0
-143 -165 0
-143 -188 0
-143 -212 0
-165 -188 0
-165 -212 0
-188 -212 0
-7 -30 0
-7 -54 0
-7 -76 0
-7 -97 0
-7 -120 0
-7 -144 0
-7 -166 0
-7 -189 0
-7 -213 0
-30 -54 0
-30 -76 0
-30 -97 0
-30 -120 0
-30 -144 0
-30 -166 0
-30 -189 0
-30 -213 0
-54 -76 0
-54 -97 0
-54 -120 0
-54 -144 0
-54 -166 0
-54 -189 0
-54 -213 0
-76 -97 0
-76 -120 0
-76 -144 0
-76 -166 0
-76 -189 0
-76 -213 0
-97 -120 0
-97 -144 0
-97 -166 0
-97 -189 0
-97 -213 0
-120 -144 0
-120 -166 0
-120 -189 0
-120 -213 0
-144 -166 0
-144 -189 0
-144 -213 0
-166 -189 0
-166 -213 0
-189 -213 0
-8 -31 0
-8 -55 0
-8 -77 0
-8 -98 0
-8 -121 0
-8 -145 0
-8 -167 0
-8 -190 0
-8 -214 0
-31 -55 0
-31 -77 0
-31 -98 0
-31 -121 0
-31 -145 0
-31 -167 0
-31 -190 0
-31 -214 0
-55 -77 0
-55 -98 0
-55 -121 0
-55 -145 0
-55 -167 0
-55 -190 0
-55 -214 0
-77 -98 0
-77 -121 0
-77 -145 0
-77 -167 0
-77 -190 0
-77 -214 0
-98 -121 0
-98 -145 0
-98 -167 0
-98 -190 0
-98 -214 0
-121 -145 0
-121 -167 0
-121 -190 0
-121 -214 0
-145 -167 0
-145 -190 0
-145 -214 0
-167 -190 0
-167 -214 0
-190 -214 0
-9 -32 0
-9 -78 0
-9 -99 0
-9 -122 0
-9 -146 0
-9 -168 0
-9 -191 0
-9 -215 0
-32 -78 0
-32 -99 0
-32 -122 0
-32 -146 0
-32 -168 0
-32 -191 0
-32 -215 0
-78 -99 0
-78 -122 0
-78 -146 0
-78 -168 0
-78 -191 0
-78 -215 0
-99 -122 0
-99 -146 0
-99 -168 0
-99 -191 0
-99 -215 0
-122 -146 0
-122 -168 0
-122 -191 0
-122 -215 0
-146 -168 0
-146 -191 0
-146 -215 0
-168 -191 0
-168 -215 0
-191 -215 0
-33 -56 0
-33 -79 0
-33 -123 0
-33 -147 0
-33 -169 0
-33 -192 0
-33 -216 0
-56 -79 0
-56 -123 0
-56 -147 0
-56 -169 0
-56 -192 0
-56 -216 0
-79 -123 0
-79 -147 0
-79 -169 0
-79 -192 0
-79 -216 0
-123 -147 0
-123 -169 0
-123 -192 0
-123 -216 0
-147 -169 0
-147 -192 0
-147 -216 0
-169 -192 0
-169 -216 0
-192 -216 0
-10 -34 0
-10 -57 0
-10 -80 0
-10 -100 0
-10 -124 0
-10 -148 0
-10 -170 0
-10 -193 0
-34 -57 0
-34 -80 0
-34 -100 0
-34 -124 0
-34 -148 0
-34 -170 0
-34 -193 0
-57 -80 0
-57 -100 0
-57 -124 0
-57 -148 0
-57 -170 0
-57 -193 0
-80 -100 0
-80 -124 0
-80 -148 0
-80 -170 0
-80 -193 0
-100 -124 0
-100 -148 0
-100 -170 0
-100 -193 0
-124 -148 0
-124 -170 0
-124 -193 0
-148 -170 0
-148 -193 0
-170 -193 0
-11 -35 0
-11 -58 0
-11 -81 0
-11 -101 0
-11 -125 0
-11 -149 0
-11 -171 0
-11 -194 0
-11 -217 0
-35 -58 0
-35 -81 0
-35 -101 0
-35 -125 0
-35 -149 0
-35 -171 0
-35 -194 0
-35 -217 0
-58 -81 0
-58 -101 0
-58 -125 0
-58 -149 0
-58 -171 0
-58 -194 0
-58 -217 0
-81 -101 0
-81 -125 0
-81 -149 0
-81 -171 0
-81 -194 0
-81 -217 0
-101 -125 0
-101 -149 0
-101 -171 0
-101 -194 0
-101 -217 0
-125 -149 0
-125 -171 0
-125 -194 0
-125 -217 0
-149 -171 0
-149 -194 0
-149 -217 0
-171 -194 0
-171 -217 0
-194 -217 0
-36 -59 0
-36 -82 0
-36 -102 0
-36 -126 0
-36 -150 0
-36 -172 0
-36 -195 0
-36 -218 0
-59 -82 0
-59 -102 0
-59 -126 0
-59 -150 0
-59 -172 0
-59 -195 0
-59 -218 0
-82 -102 0
-82 -126 0
-82 -150 0
-82 -172 0
-82 -195 0
-82 -218 0
-102 -126 0
-102 -150 0
-102 -172 0
-102 -195 0
-102 -218 0
-126 -150 0
-126 -172 0
-126 -195 0
-126 -218 0
-150 -172 0
-150 -195 0
-150 -218 0
-172 -195 0
-172 -218 0
-195 -218 0
-12 -37 0
-12 -60 0
-12 -83 0
-12 -103 0
-12 -127 0
-12 -151 0
-12 -173 0
-12 -196 0
-12 -219 0
-37 -60 0
-37 -83 0
-37 -103 0
-37 -127 0
-37 -151 0
-37 -173 0
-37 -196 0
-37 -219 0
-60 -83 0
-60 -103 0
-60 -127 0
-60 -151 0
-60 -173 0
-60 -196 0
-60 -219 0
-83 -103 0
-83 -127 0
-83 -151 0
-83 -173 0
-83 -196 0
-83 -219 0
-103 -127 0
-103 -151 0
-103 -173 0
-103 -196 0
-103 -219 0
-127 -151 0
-127 -173 0
-127 -196 0
-127 -219 0
-151 -173 0
-151 -196 0
-151 -219 0
-173 -196 0
-173 -219 0
-196 -219 0
-13 -38 0
-13 -84 0
-13 -104 0
-13 -128 0
-13 -152 0
-13 -197 0
-38 -84 0
-38 -104 0
-38 -128 0
-38 -152 0
-38 -197 0
-84 -104 0
-84 -128 0
-84 -152 0
-84 -197 0
-104 -128 0
-104 -152 0
-104 -197 0
-128 -152 0
-128 -197 0
-152 -197 0
-14 -39 0
-14 -61 0
-14 -85 0
-14 -105 0
-14 -129 0
-14 -174 0
-14 -198 0
-14 -220 0
-39 -61 0
-39 -85 0
-39 -105 0
-39 -129 0
-39 -174 0
-39 -198 0
-39 -220 0
-61 -85 0
-61 -105 0
-61 -129 0
-61 -174 0
-61 -198 0
-61 -220 0
-85 -105 0
-85 -129 0
-85 -174 0
-85 -198 0
-85 -220 0
-105 -129 0
-105 -174 0
-105 -198 0
-105 -220 0
-129 -174 0
-129 -198 0
-129 -220 0
-174 -198 0
-174 -220 0
-198 -220 0
-15 -40 0
-15 -62 0
-15 -86 0
-15 -106 0
-15 -130 0
-15 -153 0
-15 -175 0
-15 -199 0
-15 -221 0
-40 -62 0
-40 -86 0
-40 -106 0
-40 -130 0
-40 -153 0
-40 -175 0
-40 -199 0
-40 -221 0
-62 -86 0
-62 -106 0
-62 -130 0
-62 -153 0
-62 -175 0
-62 -199 0
-62 -221 0
-86 -106 0
-86 -130 0
-86 -153 0
-86 -175 0
-86 -199 0
-86 -221 0
-106 -130 0
-106 -153 0
-106 -175 0
-106 -199 0
-106 -221 0
-130 -153 0
-130 -175 0
-130 -199 0
-130 -221 0
-153 -175 0
-153 -199 0
-153 -221 0
-175 -199 0
-175 -221 0
-199 -221 0
-16 -41 0
-16 -63 0
-16 -107 0
-16 -131 0
-16 -176 0
-16 -222 0
-41 -63 0
-41 -107 0
-41 -131 0
-41 -176 0
-41 -222 0
-63 -107 0
-63 -131 0
-63 -176 0
-63 -222 0
-107 -131 0
-107 -176 0
-107 -222 0
-131 -176 0
-131 -222 0
-176 -222 0
-17 -42 0
-17 -64 0
-17 -87 0
-17 -108 0
-17 -154 0
-17 -177 0
-17 -200 0
-42 -64 0
-42 -87 0
-42 -108 0
-42 -154 0
-42 -177 0
-42 -200 0
-64 -87 0
-64 -108 0
-64 -154 0
-64 -177 0
-64 -200 0
-87 -108 0
-87 -154 0
-87 -177 0
-87 -200 0
-108 -154 0
-108 -177 0
-108 -200 0
-154 -177 0
-154 -200 0
-177 -200 0
-18 -43 0
-18 -65 0
-18 -88 0
-18 -109 0
-18 -132 0
-18 -178 0
-18 -201 0
-18 -223 0
-43 -65 0
-43 -88 0
-43 -109 0
-43 -132 0
-43 -178 0
-43 -201 0
-43 -223 0
-65 -88 0
-65 -109 0
-65 -132 0
-65 -178 0
-65 -201 0
-65 -223 0
-88 -109 0
-88 -132 0
-88 -178 0
-88 -201 0
-88 -223 0
-109 -132 0
-109 -178 0
-109 -201 0
-109 -223 0
-132 -178 0
-132 -201 0
-132 -223 0
-178 -201 0
-178 -223 0
-201 -223 0
-19 -44 0
-19 -66 0
-19 -89 0
-19 -110 0
-19 -133 0
-19 -155 0
-19 -179 0
-19 -202 0
-19 -224 0
-44 -66 0
-44 -89 0
-44 -110 0
-44 -133 0
-44 -155 0
-44 -179 0
-44 -202 0
-44 -224 0
-66 -89 0
-66 -110 0
-66 -133 0
-66 -155 0
-66 -179 0
-66 -202 0
-66 -224 0
-89 -110 0
-89 -133 0
-89 -155 0
-89 -179 0
-89 -202 0
-89 -224 0
-110 -133 0
-110 -155 0
-110 -179 0
-110 -202 0
-110 -224 0
-133 -155 0
-133 -179 0
-133 -202 0
-133 -224 0
-155 -179 0
-155 -202 0
-155 -224 0
-179 -202 0
-179 -224 0
-202 -224 0
-20 -45 0
-20 -67 0
-20 -90 0
-20 -111 0
-20 -134 0
-20 -156 0
-20 -180 0
-20 -203 0
-20 -225 0
-45 -67 0
-45 -90 0
-45 -111 0
-45 -134 0
-45 -156 0
-45 -180 0
-45 -203 0
-45 -225 0
-67 -90 0
-67 -111 0
-67 -134 0
-67 -156 0
-67 -180 0
-67 -203 0
-67 -225 0
-90 -111 0
-90 -134 0
-90 -156 0
-90 -180 0
-90 -203 0
-90 -225 0
-111 -134 0
-111 -156 0
-111 -180 0
-111 -203 0
-111 -225 0
-134 -156 0
-134 -180 0
-134 -203 0
-134 -225 0
-156 -180 0
-156 -203 0
-156 -225 0
-180 -203 0
-180 -225 0
-203 -225 0
-21 -46 0
-21 -68 0
-21 -112 0
-21 -135 0
-21 -157 0
-21 -204 0
-21 -226 0
-46 -68 0
-46 -112 0
-46 -135 0
-46 -157 0
-46 -204 0
-46 -226 0
-68 -112 0
-68 -135 0
-68 -157 0
-68 -204 0
-68 -226 0
-112 -135 0
-112 -157 0
-112 -204 0
-112 -226 0
-135 -157 0
-135 -204 0
-135 -226 0
-157 -204 0
-157 -226 0
-204 -226 0
-22 -47 0
-22 -69 0
-22 -113 0
-22 -136 0
-22 -158 0
-22 -181 0
-22 -205 0
-22 -227 0
-47 -69 0
-47 -113 0
-47 -136 0
-47 -158 0
-47 -181 0
-47 -205 0
-47 -227 0
-69 -113 0
-69 -136 0
-69 -158 0
-69 -181 0
-69 -205 0
-69 -227 0
-113 -136 0
-113 -158 0
-113 -181 0
-113 -205 0
-113 -227 0
-136 -158 0
-136 -181 0
-136 -205 0
-136 -227 0
-158 -181 0
-158 -205 0
-158 -227 0
-181 -205 0
-181 -227 0
-205 -227 0